\ This file has been generated by DOcplex
\ ENCODING=ISO-8859-1
\Problem name: tiger problem

Maximize
 obj: V
Subject To
 c1: V + 21 a0_0 + 65 a0_1 + 65 a0_2 <= 0
 c2: V + 65 a0_0 + 34 a0_1 + 119 a0_2 <= 0
 c3: V + 65 a0_0 + 119 a0_1 + 34 a0_2 <= 0
 c4: a0_0 + a0_1 + a0_2 = 1

Bounds
       a0_0 <= 1
       a0_1 <= 1
       a0_2 <= 1
       V Free
End
